Default LOCALE: LC_CTYPE=en_US.UTF-8;LC_NUMERIC=it_IT.UTF-8;LC_TIME=en_US.UTF-8;LC_COLLATE=en_US.UTF-8;LC_MONETARY=it_IT.UTF-8;LC_MESSAGES=en_US.UTF-8;LC_PAPER=it_IT.UTF-8;LC_NAME=it_IT.UTF-8;LC_ADDRESS=it_IT.UTF-8;LC_TELEPHONE=it_IT.UTF-8;LC_MEASUREMENT=it_IT.UTF-8;LC_IDENTIFICATION=it_IT.UTF-8

<<< setup, at 0s, took 1,54878e+09s


<<< generate, at 0s, took 0,00689816s

CPXPARAM_TimeLimit                               1
Tried aggregator 1 time.
MIP Presolve eliminated 19 rows and 19 columns.
Reduced MIP has 441 rows, 781 columns, and 2304 nonzeros.
Reduced MIP has 400 binaries, 381 generals, 0 SOSs, and 0 indicators.
Presolve time = 0,00 sec. (1,39 ticks)
Found incumbent of value 92,996492 after 0,00 sec. (3,73 ticks)
Probing fixed 19 vars, tightened 0 bounds.
Probing time = 0,00 sec. (3,10 ticks)
Cover probing fixed 0 vars, tightened 361 bounds.
Tried aggregator 1 time.
MIP Presolve eliminated 21 rows and 39 columns.
MIP Presolve modified 362 coefficients.
Reduced MIP has 420 rows, 742 columns, and 2206 nonzeros.
Reduced MIP has 381 binaries, 361 generals, 0 SOSs, and 0 indicators.
Presolve time = 0,00 sec. (2,39 ticks)
Probing time = 0,00 sec. (2,68 ticks)
Clique table members: 40.
MIP emphasis: balance optimality and feasibility.
MIP search method: dynamic search.
Parallel mode: deterministic, using up to 4 threads.
Root relaxation solution time = 0,00 sec. (4,19 ticks)

        Nodes                                         Cuts/
   Node  Left     Objective  IInf  Best Integer    Best Bound    ItCnt     Gap

*     0+    0                           92,9965        0,0000           100,00%
      0     0       28,4224    48       92,9965       28,4224      254   69,44%
      0     0       37,8292    79       92,9965      Cuts: 57      559   59,32%
*     0+    0                           39,3814       37,8292             3,94%
      0     0        cutoff             39,3814       39,3814      747    0,00%
Elapsed time = 0,20 sec. (116,95 ticks, tree = 0,01 MB, solutions = 2)

Cover cuts applied:  5
Implied bound cuts applied:  14
Flow cuts applied:  40
Mixed integer rounding cuts applied:  1
Zero-half cuts applied:  6
Lift and project cuts applied:  9
Gomory fractional cuts applied:  8

Root node processing (before b&c):
  Real time             =    0,20 sec. (117,01 ticks)
Parallel b&c, 4 threads:
  Real time             =    0,00 sec. (0,00 ticks)
  Sync time (average)   =    0,00 sec.
  Wait time (average)   =    0,00 sec.
                          ------------
Total (root+branch&cut) =    0,20 sec. (117,01 ticks)

<<< solve, at 0,63s, took 0,199209s


OBJECTIVE: 39.38135
01/29/2019 17:12:02 591
solving time ~= 203.62890625
Done
 [[0 0 3 0 0 0 0 0 0 0 0 0 0 0 0 0 0 0 0 0]
         [0 0 0 1 0 0 0 0 0 0 0 0 0 0 0 0 0 0 0 0]
         [0 2 0 0 0 0 0 0 0 0 0 0 0 0 0 0 0 0 0 0]
         [0 0 0 0 0 0 0 0 0 0 0 20 0 0 0 0 0 0 0 0]
         [4 0 0 0 0 0 0 0 0 0 0 0 0 0 0 0 0 0 0 0]
         [0 0 0 0 0 0 10 0 0 0 0 0 0 0 0 0 0 0 0 0]
         [0 0 0 0 0 0 0 9 0 0 0 0 0 0 0 0 0 0 0 0]
         [0 0 0 0 0 0 0 0 8 0 0 0 0 0 0 0 0 0 0 0]
         [0 0 0 0 0 0 0 0 0 7 0 0 0 0 0 0 0 0 0 0]
         [0 0 0 0 0 0 0 0 0 0 6 0 0 0 0 0 0 0 0 0]
         [0 0 0 0 5 0 0 0 0 0 0 0 0 0 0 0 0 0 0 0]
         [0 0 0 0 0 0 0 0 0 0 0 0 0 0 0 0 0 0 0 19]
         [0 0 0 0 0 11 0 0 0 0 0 0 0 0 0 0 0 0 0 0]
         [0 0 0 0 0 0 0 0 0 0 0 0 12 0 0 0 0 0 0 0]
         [0 0 0 0 0 0 0 0 0 0 0 0 0 13 0 0 0 0 0 0]
         [0 0 0 0 0 0 0 0 0 0 0 0 0 0 14 0 0 0 0 0]
         [0 0 0 0 0 0 0 0 0 0 0 0 0 0 0 15 0 0 0 0]
         [0 0 0 0 0 0 0 0 0 0 0 0 0 0 0 0 16 0 0 0]
         [0 0 0 0 0 0 0 0 0 0 0 0 0 0 0 0 0 17 0 0]
         [0 0 0 0 0 0 0 0 0 0 0 0 0 0 0 0 0 0 18 0]]

<<< post process, at 0,63s, took 0,000927925s

// solution (optimal) with objective 39.3813506118596
// Quality Incumbent solution:
// MILP objective                                 3,9381350612e+01
// MILP solution norm |x| (Total, Max)            2,30000e+02  2,00000e+01
// MILP solution error (Ax=b) (Total, Max)        0,00000e+00  0,00000e+00
// MILP x bound error (Total, Max)                0,00000e+00  0,00000e+00
// MILP x integrality error (Total, Max)          0,00000e+00  0,00000e+00
// MILP slack bound error (Total, Max)            0,00000e+00  0,00000e+00
// 

y = [[0
             0 1 0 0 0 0 0 0 0 0 0 0 0 0 0 0 0 0 0]
             [0 0 0 1 0 0 0 0 0 0 0 0 0 0 0 0 0 0 0 0]
             [0 1 0 0 0 0 0 0 0 0 0 0 0 0 0 0 0 0 0 0]
             [0 0 0 0 0 0 0 0 0 0 0 1 0 0 0 0 0 0 0 0]
             [1 0 0 0 0 0 0 0 0 0 0 0 0 0 0 0 0 0 0 0]
             [0 0 0 0 0 0 1 0 0 0 0 0 0 0 0 0 0 0 0 0]
             [0 0 0 0 0 0 0 1 0 0 0 0 0 0 0 0 0 0 0 0]
             [0 0 0 0 0 0 0 0 1 0 0 0 0 0 0 0 0 0 0 0]
             [0 0 0 0 0 0 0 0 0 1 0 0 0 0 0 0 0 0 0 0]
             [0 0 0 0 0 0 0 0 0 0 1 0 0 0 0 0 0 0 0 0]
             [0 0 0 0 1 0 0 0 0 0 0 0 0 0 0 0 0 0 0 0]
             [0 0 0 0 0 0 0 0 0 0 0 0 0 0 0 0 0 0 0 1]
             [0 0 0 0 0 1 0 0 0 0 0 0 0 0 0 0 0 0 0 0]
             [0 0 0 0 0 0 0 0 0 0 0 0 1 0 0 0 0 0 0 0]
             [0 0 0 0 0 0 0 0 0 0 0 0 0 1 0 0 0 0 0 0]
             [0 0 0 0 0 0 0 0 0 0 0 0 0 0 1 0 0 0 0 0]
             [0 0 0 0 0 0 0 0 0 0 0 0 0 0 0 1 0 0 0 0]
             [0 0 0 0 0 0 0 0 0 0 0 0 0 0 0 0 1 0 0 0]
             [0 0 0 0 0 0 0 0 0 0 0 0 0 0 0 0 0 1 0 0]
             [0 0 0 0 0 0 0 0 0 0 0 0 0 0 0 0 0 0 1 0]];
x = [[0 0 3 0 0 0 0 0 0 0 0 0 0 0 0 0 0 0 0 0]
             [0 0 0 1 0 0 0 0 0 0 0 0 0 0 0 0 0 0 0 0]
             [0 2 0 0 0 0 0 0 0 0 0 0 0 0 0 0 0 0 0 0]
             [0 0 0 0 0 0 0 0 0 0 0 20 0 0 0 0 0 0 0 0]
             [4 0 0 0 0 0 0 0 0 0 0 0 0 0 0 0 0 0 0 0]
             [0 0 0 0 0 0 10 0 0 0 0 0 0 0 0 0 0 0 0 0]
             [0 0 0 0 0 0 0 9 0 0 0 0 0 0 0 0 0 0 0 0]
             [0 0 0 0 0 0 0 0 8 0 0 0 0 0 0 0 0 0 0 0]
             [0 0 0 0 0 0 0 0 0 7 0 0 0 0 0 0 0 0 0 0]
             [0 0 0 0 0 0 0 0 0 0 6 0 0 0 0 0 0 0 0 0]
             [0 0 0 0 5 0 0 0 0 0 0 0 0 0 0 0 0 0 0 0]
             [0 0 0 0 0 0 0 0 0 0 0 0 0 0 0 0 0 0 0 19]
             [0 0 0 0 0 11 0 0 0 0 0 0 0 0 0 0 0 0 0 0]
             [0 0 0 0 0 0 0 0 0 0 0 0 12 0 0 0 0 0 0 0]
             [0 0 0 0 0 0 0 0 0 0 0 0 0 13 0 0 0 0 0 0]
             [0 0 0 0 0 0 0 0 0 0 0 0 0 0 14 0 0 0 0 0]
             [0 0 0 0 0 0 0 0 0 0 0 0 0 0 0 15 0 0 0 0]
             [0 0 0 0 0 0 0 0 0 0 0 0 0 0 0 0 16 0 0 0]
             [0 0 0 0 0 0 0 0 0 0 0 0 0 0 0 0 0 17 0 0]
             [0 0 0 0 0 0 0 0 0 0 0 0 0 0 0 0 0 0 18 0]];

<<< done, at 0,63s, took 0,001158s

